p ds 20 5
1 3
1 7
1 17
1 19
2 6
2 10
2 15
2 19
2 20
3 6
3 9
3 12
3 14
3 15
3 16
3 17
3 20
4 5
4 6
4 12
4 13
4 14
4 16
4 20
5 6
5 9
5 12
5 13
5 14
5 15
5 16
5 18
6 8
6 10
6 12
6 14
6 15
6 16
6 18
6 19
6 20
7 8
7 11
7 14
7 15
7 16
7 17
7 20
8 11
8 16
8 19
9 11
9 13
9 15
9 16
10 13
10 16
10 19
11 12
11 13
11 14
11 15
11 16
11 20
12 14
12 15
12 18
12 19
13 15
13 17
13 18
13 20
14 16
14 17
14 18
14 19
14 20
15 20
16 17
16 20
17 18
18 20
19 20
